17	4
14	16	17	10	
0	0	0	0	0	3	2	3	4	
8	8	3	3	8	2	5	15	
2	2	10	0	5	3	6	9	11	
9	3	0	10	7	3	8	10	13	
5	2	2	0	0	3	6	11	17	
150	3	0	9	0	3	7	8	10	
75	10	10	0	6	3	12	14	17	
75	3	10	9	0	3	12	17	17	
150	10	1	6	0	3	15	17	17	
50	3	10	9	0	3	14	17	17	
125	4	0	1	5	3	17	17	17	
50	3	1	9	0	2	17	17	
4	1	4	5	0	3	15	16	17	
5	0	9	3	8	2	17	17	
8	6	3	8	0	3	17	17	17	
10	6	0	9	5	3	17	17	17	
0	0	0	0	0	0	
